SAT
-1 -100 99 -2 54 -13 46 -65 -53 94 48 34 -23 43 -17 -57 -4 60 55 -11 -69 71 88 74 -82 22 -84 -80 -45 -33 7 -31 59 -14 -75 78 12 95 21 6 -9 -40 -24 -96 -67 50 -52 -5 -86 -10 79 61 -35 62 -28 -44 -51 37 -87 -36 -70 -98 39 97 -25 73 -8 -26 -20 68 -64 -92 -56 72 -19 -89 -90 -83 -49 66 -30 16 -41 91 -76 -63 93 -85 -27 -77 -38 -42 3 -32 -18 15 58 29 -47 -81 0
